NAME : graph8
COMMENT : H Algorithm Solution by Oscar Riveros [http://twitter.com/maxtuno]
TYPE : TOUR
DIMENSION : 108
TOUR_SECTION
59
14
77
54
23
30
44
72
61
80
32
40
50
76
17
10
94
91
18
98
19
26
106
16
99
93
64
66
105
8
49
51
36
79
62
38
70
7
37
31
12
67
55
104
71
78
11
39
9
97
45
56
43
86
15
108
29
84
5
6
90
69
60
82
83
24
42
53
68
13
103
57
73
85
92
20
52
100
74
89
102
58
34
107
41
101
46
1
25
33
28
3
4
21
27
22
88
96
75
2
87
95
63
81
47
35
48
65
-1
EOF
